55

C 8.378000259 -57.633998871 4.173000336
C 8.946000099 -57.553001404 2.921999931
C 9.366999626 -56.138000488 2.645999908
N 8.973999977 -55.438999176 3.864000320
C 8.406999588 -56.305000305 4.737999916
C 8.006999969 -59.986999512 3.897999763
C 8.585000038 -59.916999817 2.614000320
C 9.064000130 -58.688999176 2.111000061
C 7.897999763 -58.833999634 4.692999840
O 7.986000061 -55.993000031 5.842000008
N 9.645999908 -58.613998413 0.821000099
C 9.166999817 -54.013000488 4.104999542
C 10.633000374 -53.696998596 4.395000458
C 10.803000450 -52.194999695 4.659000397
C 10.147000313 -51.376998901 3.569000244
N 9.196999550 -51.912998199 2.750000000
C 8.720000267 -53.178001404 2.920000076
O 7.888999939 -53.618999481 2.138999939
O 10.468999863 -50.206001282 3.433000565
C 9.758999825 -57.661998749 -12.807999611
N 9.932000160 -58.553001404 -11.788000107
O 10.276000023 -56.569000244 -12.760000229
C 8.984999657 -58.119998932 -13.819000244
O 8.923999786 -59.320999146 -14.010999680
C 8.166000366 -57.233001709 -14.762999535
C 6.820000172 -56.632999420 -14.324000359
C 6.517000198 -53.770999908 -16.738000870
C 5.239999771 -53.397998810 -16.583000183
C 4.467999935 -54.057998657 -15.706999779
C 4.967999935 -55.080001831 -14.993000031
C 6.254000187 -55.472999573 -15.135000229
C 7.008999825 -54.792999268 -16.020999908
Br 3.772999763 -55.932998657 -13.784000397
Br 7.622000217 -52.849998474 -17.972000122
C 10.732999802 -58.256999969 -10.595999718
C 10.685999870 -59.458000183 -9.640000343
C 9.442000389 -59.534000397 -8.798999786
C 9.163999557 -58.865001678 -7.668000221
N 8.010999680 -59.208000183 -7.260000229
C 7.495999813 -60.062999725 -8.041000366
C 8.364000320 -60.301998138 -9.029000282
C 6.316999912 -60.688999176 -8.000000000
C 6.045000076 -61.558998108 -8.987000465
C 6.895999908 -61.827999115 -10.003000259
C 8.078000069 -61.173000336 -10.005999565
O 6.500999928 -62.741001129 -10.953000069
C 7.035999775 -64.042999268 -10.907999992
C 10.019298553 -57.797855377 -7.027418137
C 10.086920738 -58.842708588 -2.414074659
C 11.014856339 -58.058948517 -3.341517687
O 11.398076057 -59.543647766 -5.185062408
C 10.783590317 -58.533100128 -4.747529984
C 10.845658302 -59.330326080 -1.169561863
C 9.917275429 -59.769371033 -0.033964634
N 9.876262665 -57.807579041 -5.579648018
